Problem:    modeloMatematico
Rows:       73
Columns:    54 (42 integer, 42 binary)
Non-zeros:  328
Status:     INTEGER OPTIMAL
Objective:  obj = 7 (MINimum)

   No.   Row name        Activity     Lower bound   Upper bound
------ ------------    ------------- ------------- -------------
     1 obj                         7                             
     2 c1[1]                       1             1             = 
     3 c1[2]                       1             1             = 
     4 c1[3]                       1             1             = 
     5 c1[4]                       1             1             = 
     6 c2[1]                       5                          20 
     7 c2[2]                      15                          20 
     8 c3[1]                       1             1             = 
     9 c3[2]                       1             1             = 
    10 c4[1,1]                     0            -0             = 
    11 c4[1,2]                     0            -0             = 
    12 c4[2,1]                     0            -0             = 
    13 c4[2,2]                     0            -0             = 
    14 c4[3,1]                     0            -0             = 
    15 c4[3,2]                     0            -0             = 
    16 c4[4,1]                     0            -0             = 
    17 c4[4,2]                     0            -0             = 
    18 c5[1]                       1             1             = 
    19 c5[2]                       1             1             = 
    20 c6[0,1,1]               99998                       99998 
    21 c6[0,1,2]                  -2                       99998 
    22 c6[0,2,1]                  -4                       99997 
    23 c6[0,2,2]                  -6                       99997 
    24 c6[0,3,1]                  -2                       99997 
    25 c6[0,3,2]               99997                       99997 
    26 c6[0,4,1]                  -4                       99997 
    27 c6[0,4,2]                  -4                       99997 
    28 c6[0,5,1]                  -3                       99997 
    29 c6[0,5,2]                  -9                       99997 
    30 c6[1,2,1]                  -2                       99999 
    31 c6[1,2,2]                  -4                       99999 
    32 c6[1,3,1]                   0                       99999 
    33 c6[1,3,2]                  -1                       99999 
    34 c6[1,4,1]                  -2                       99999 
    35 c6[1,4,2]                  -2                       99999 
    36 c6[1,5,1]               99999                       99999 
    37 c6[1,5,2]                  -7                       99999 
    38 c6[2,1,1]                   2                       99997 
    39 c6[2,1,2]                   4                       99997 
    40 c6[2,3,1]                   2                       99997 
    41 c6[2,3,2]                   3                       99997 
    42 c6[2,4,1]                   0                       99997 
    43 c6[2,4,2]                   2                       99997 
    44 c6[2,5,1]                   1                       99997 
    45 c6[2,5,2]               99997                       99997 
    46 c6[3,1,1]                   0                       99999 
    47 c6[3,1,2]                   1                       99999 
    48 c6[3,2,1]                  -2                       99999 
    49 c6[3,2,2]                  -3                       99999 
    50 c6[3,4,1]                  -2                       99999 
    51 c6[3,4,2]               99999                       99999 
    52 c6[3,5,1]                  -1                       99997 
    53 c6[3,5,2]                  -6                       99997 
    54 c6[4,1,1]                   2                       99998 
    55 c6[4,1,2]                   2                       99998 
    56 c6[4,2,1]                   0                       99998 
    57 c6[4,2,2]               99998                       99998 
    58 c6[4,3,1]                   2                       99998 
    59 c6[4,3,2]                   1                       99998 
    60 c6[4,5,1]                   1                       99998 
    61 c6[4,5,2]                  -5                       99998 
    62 c7[0,1]                     0             0             9 
    63 c7[0,2]                     0             0             9 
    64 c7[1,1]                     2             2             4 
    65 c7[1,2]                     2             2             4 
    66 c7[2,1]                     4             4             6 
    67 c7[2,2]                     6             4             6 
    68 c7[3,1]                     2             2             4 
    69 c7[3,2]                     3             2             4 
    70 c7[4,1]                     4             4             6 
    71 c7[4,2]                     4             4             6 
    72 c7[5,1]                     3             0             9 
    73 c7[5,2]                     9             0             9 

   No. Column name       Activity     Lower bound   Upper bound
------ ------------    ------------- ------------- -------------
     1 x[0,1,1]     *              1             0             1 
     2 x[0,2,1]     *              0             0             1 
     3 x[0,3,1]     *              0             0             1 
     4 x[0,4,1]     *              0             0             1 
     5 x[0,5,1]     *              0             0             1 
     6 x[1,2,1]     *              0             0             1 
     7 x[1,3,1]     *              0             0             1 
     8 x[1,4,1]     *              0             0             1 
     9 x[1,5,1]     *              1             0             1 
    10 x[2,1,1]     *              0             0             1 
    11 x[2,3,1]     *              0             0             1 
    12 x[2,4,1]     *              0             0             1 
    13 x[2,5,1]     *              0             0             1 
    14 x[3,1,1]     *              0             0             1 
    15 x[3,2,1]     *              0             0             1 
    16 x[3,4,1]     *              0             0             1 
    17 x[3,5,1]     *              0             0             1 
    18 x[4,1,1]     *              0             0             1 
    19 x[4,2,1]     *              0             0             1 
    20 x[4,3,1]     *              0             0             1 
    21 x[4,5,1]     *              0             0             1 
    22 x[0,1,2]     *              0             0             1 
    23 x[0,2,2]     *              0             0             1 
    24 x[0,3,2]     *              1             0             1 
    25 x[0,4,2]     *              0             0             1 
    26 x[0,5,2]     *              0             0             1 
    27 x[1,2,2]     *              0             0             1 
    28 x[1,3,2]     *              0             0             1 
    29 x[1,4,2]     *              0             0             1 
    30 x[1,5,2]     *              0             0             1 
    31 x[2,1,2]     *              0             0             1 
    32 x[2,3,2]     *              0             0             1 
    33 x[2,4,2]     *              0             0             1 
    34 x[2,5,2]     *              1             0             1 
    35 x[3,1,2]     *              0             0             1 
    36 x[3,2,2]     *              0             0             1 
    37 x[3,4,2]     *              1             0             1 
    38 x[3,5,2]     *              0             0             1 
    39 x[4,1,2]     *              0             0             1 
    40 x[4,2,2]     *              1             0             1 
    41 x[4,3,2]     *              0             0             1 
    42 x[4,5,2]     *              0             0             1 
    43 s[0,1]                      0                             
    44 s[1,1]                      2                             
    45 s[0,2]                      0                             
    46 s[1,2]                      2                             
    47 s[2,1]                      4                             
    48 s[2,2]                      6                             
    49 s[3,1]                      2                             
    50 s[3,2]                      3                             
    51 s[4,1]                      4                             
    52 s[4,2]                      4                             
    53 s[5,1]                      3                             
    54 s[5,2]                      9                             

Integer feasibility conditions:

KKT.PE: max.abs.err = 0.00e+00 on row 0
        max.rel.err = 0.00e+00 on row 0
        High quality

KKT.PB: max.abs.err = 0.00e+00 on row 0
        max.rel.err = 0.00e+00 on row 0
        High quality

End of output
